NAME : input200_4.txt .out.tour
COMMENT : Tour for input200_4.txt .tsp (Length 2895.65)
TYPE : TOUR
DIMENSION : 200
TOUR_SECTION
1
66
133
159
42
189
52
62
160
47
33
76
109
190
23
68
69
156
169
17
19
4
27
183
80
168
39
149
117
187
48
26
186
81
131
161
177
88
21
192
75
140
97
15
175
46
60
58
173
196
143
36
178
100
114
111
73
12
123
164
106
53
179
150
137
115
29
103
116
65
166
98
158
180
200
95
2
136
44
38
30
152
82
72
184
127
119
51
41
13
50
16
63
91
154
57
129
107
78
83
113
120
104
86
170
37
49
25
92
56
118
157
35
96
142
151
146
155
34
20
144
77
67
84
162
18
139
105
79
128
121
43
174
7
28
198
122
3
61
59
199
99
193
8
148
134
70
87
135
10
74
71
55
112
182
167
6
64
153
130
31
45
24
124
145
101
125
141
89
126
163
11
110
9
85
191
108
194
188
40
195
197
171
165
14
94
22
138
102
5
185
54
176
181
90
93
32
172
132
147
1
